100 64359

 370 130
136 431
519 275
113 888
934 41
184 914
253 833
407 298
384 790
795 32
457 967
171 527
268 304
510 363
148 67
612 990
566 40
715 655
938 443
913 949
947 246
245 533
132 483
303 703
896 69
973 194
860 215
111 739
948 190
424 574
10 216
443 862
47 943
544 519
339 353
474 235
614 50
869 269
662 655
435 534
820 945
906 397
120 694
532 490
285 513
48 268
669 455
863 471
163 707
813 941
854 330
915 43
266 497
904 545
321 169
553 761
51 985
44 946
721 198
445 876
257 705
191 454
670 541
1 850
806 481
80 374
192 494
387 580
485 190
355 901
321 675
964 634
642 100
24 605
431 121
876 79
302 528
95 403
759 589
607 90
571 431
54 175
141 988
623 562
208 688
505 326
545 95
284 976
949 287
843 424
723 650
78 25
107 811
493 537
161 279
979 62
159 163
488 896
365 687
640 250
